qbf_easy_train/easy_5253_SAT.qdimacs
p cnf 26 69
a 2 11 15 0
e 1 3 4 5 6 7 8 9 10 12 13 14 16 17 18 19 20 21 22 23 24 25 26 0
-2 -1 -3 0
2 1 -3 0
-2 1 3 0
2 -1 3 0
-1 3 -4 0
1 -3 -4 0
-1 -3 4 0
1 3 4 0
-4 -1 -5 0
4 1 -5 0
-4 1 5 0
4 -1 5 0
-5 -6 -7 0
5 6 -7 0
-5 6 7 0
5 -6 7 0
-10 8 0
-10 -9 0
-8 9 10 0
7 10 -11 0
-7 -10 -11 0
7 -10 11 0
-7 10 11 0
-13 -12 0
-13 1 0
12 -1 13 0
14 -12 0
14 -4 0
12 4 -14 0
15 -12 0
15 -6 0
12 6 -15 0
14 -15 -16 0
-14 15 -16 0
14 15 16 0
-14 -15 16 0
17 13 0
17 -16 0
-13 16 -17 0
-19 18 0
-19 5 0
-18 -5 19 0
21 -20 0
21 8 0
20 -8 -21 0
22 -19 0
22 -21 0
19 21 -22 0
-23 17 0
-23 22 0
-17 -22 23 0
-8 -5 -24 0
8 5 -24 0
-8 5 24 0
8 -5 24 0
-23 -24 -25 0
23 24 -25 0
-23 24 25 0
23 -24 25 0
26 -11 0
26 -25 0
11 25 -26 0
-21 -13 23 18 7 -2 25 0
7 -20 0
23 17 -25 7 15 2 -21 0
-6 19 17 7 2 0
26 2 14 24 11 0
-18 7 -19 -8 4 0
26 0
