sat_easy_train/easy_5253_SAT.dimacs
p cnf 119 405
1 -2 0
-1 -2 0
4 -2 0
4 -3 0
2 3 -4 0
7 5 0
7 -6 0
-5 6 -7 0
-8 9 -10 0
8 -9 -10 0
-8 -9 10 0
8 9 10 0
-1 10 -11 0
1 -10 -11 0
-1 -10 11 0
1 10 11 0
12 13 -14 0
-12 -13 -14 0
12 -13 14 0
-12 13 14 0
-11 -14 -15 0
11 14 -15 0
-11 14 15 0
11 -14 15 0
-7 -15 -16 0
7 15 -16 0
-7 15 16 0
7 -15 16 0
17 -4 0
17 -16 0
4 16 -17 0
-19 2 0
-19 -18 0
-2 18 19 0
20 6 0
20 9 0
-6 -9 -20 0
-9 -20 -21 0
9 20 -21 0
-9 20 21 0
9 -20 21 0
-22 -19 0
-22 21 0
19 -21 22 0
24 -2 -25 0
-24 2 -25 0
24 2 25 0
-24 -2 25 0
-26 -23 0
-26 25 0
23 -25 26 0
-27 22 0
-27 26 0
-22 -26 27 0
5 -18 -28 0
-5 18 -28 0
5 18 28 0
-5 -18 28 0
28 -29 -30 0
-28 29 -30 0
28 29 30 0
-28 -29 30 0
32 30 0
32 31 0
-30 -31 -32 0
-33 -28 0
-33 -28 0
28 33 0
-34 23 0
-34 -25 0
-23 25 34 0
35 33 0
35 -34 0
-33 34 -35 0
-32 -35 -36 0
32 35 -36 0
-32 35 36 0
32 -35 36 0
8 36 -37 0
-8 -36 -37 0
8 -36 37 0
-8 36 37 0
-38 27 0
-38 37 0
-27 -37 38 0
-39 -31 0
-39 21 0
31 -21 39 0
39 19 -40 0
-39 -19 -40 0
39 -19 40 0
-39 19 40 0
41 38 0
41 40 0
-38 -40 -41 0
42 -8 0
42 5 0
8 -5 -42 0
42 11 -43 0
-42 -11 -43 0
42 -11 43 0
-42 11 43 0
43 -34 -44 0
-43 34 -44 0
43 34 44 0
-43 -34 44 0
46 -10 0
46 35 0
10 -35 -46 0
-47 45 0
-47 1 0
-45 -1 47 0
-48 -46 0
-48 -47 0
46 47 48 0
-45 -48 -49 0
45 48 -49 0
-45 48 49 0
45 -48 49 0
9 20 -50 0
-9 -20 -50 0
9 -20 50 0
-9 20 50 0
51 -49 0
51 50 0
49 -50 -51 0
52 44 0
52 51 0
-44 -51 -52 0
41 52 -53 0
-41 -52 -53 0
41 -52 53 0
-41 52 53 0
54 -17 0
54 -53 0
17 53 -54 0
-18 -8 -56 0
18 8 -56 0
-18 8 56 0
18 -8 56 0
57 1 0
57 56 0
-1 -56 -57 0
55 -57 -58 0
-55 57 -58 0
55 57 58 0
-55 -57 58 0
59 -5 0
59 6 0
5 -6 -59 0
31 -34 -60 0
-31 34 -60 0
31 34 60 0
-31 -34 60 0
-61 60 0
-61 7 0
-60 -7 61 0
62 -31 0
62 45 0
31 -45 -62 0
-63 33 0
-63 -62 0
-33 62 63 0
64 -63 0
64 -32 0
63 32 -64 0
65 64 0
65 24 0
-64 -24 -65 0
-61 65 -66 0
61 -65 -66 0
-61 -65 66 0
61 65 66 0
67 -47 0
67 66 0
47 -66 -67 0
-68 -33 -69 0
68 33 -69 0
-68 33 69 0
68 -33 69 0
-67 -69 -70 0
67 69 -70 0
-67 69 70 0
67 -69 70 0
71 12 0
71 9 0
-12 -9 -71 0
14 33 -72 0
-14 -33 -72 0
14 -33 72 0
-14 33 72 0
-71 -72 -73 0
71 72 -73 0
-71 72 73 0
71 -72 73 0
-32 29 -74 0
32 -29 -74 0
-32 -29 74 0
32 29 74 0
75 -73 0
75 74 0
73 -74 -75 0
70 75 -76 0
-70 -75 -76 0
70 -75 76 0
-70 75 76 0
77 59 0
77 -76 0
-59 76 -77 0
-78 -58 0
-78 77 0
58 -77 78 0
-79 -54 0
-79 78 0
54 -78 79 0
80 18 0
80 3 0
-18 -3 -80 0
-81 -30 0
-81 -80 0
30 80 81 0
-82 -81 0
-82 62 0
81 -62 82 0
-83 82 0
-83 64 0
-82 -64 83 0
84 -32 0
84 -24 0
32 24 -84 0
-85 84 0
-85 57 0
-84 -57 85 0
-83 -85 -86 0
83 85 -86 0
-83 85 86 0
83 -85 86 0
87 5 0
87 18 0
-5 -18 -87 0
-87 2 -88 0
87 -2 -88 0
-87 -2 88 0
87 2 88 0
80 9 -89 0
-80 -9 -89 0
80 -9 89 0
-80 9 89 0
90 -88 0
90 89 0
88 -89 -90 0
-86 90 -91 0
86 -90 -91 0
-86 -90 91 0
86 90 91 0
21 -26 -92 0
-21 26 -92 0
21 26 92 0
-21 -26 92 0
14 -71 -93 0
-14 71 -93 0
14 71 93 0
-14 -71 93 0
94 -92 0
94 -93 0
92 93 -94 0
95 -13 0
95 57 0
13 -57 -95 0
96 -95 0
96 -35 0
95 35 -96 0
-97 -42 0
-97 64 0
42 -64 97 0
71 -29 -98 0
-71 29 -98 0
71 29 98 0
-71 -29 98 0
99 97 0
99 -98 0
-97 98 -99 0
-24 8 -100 0
24 -8 -100 0
-24 -8 100 0
24 8 100 0
99 -100 -101 0
-99 100 -101 0
99 100 101 0
-99 -100 101 0
96 -101 -102 0
-96 101 -102 0
96 101 102 0
-96 -101 102 0
94 -102 -103 0
-94 102 -103 0
94 102 103 0
-94 -102 103 0
91 -103 -104 0
-91 103 -104 0
91 103 104 0
-91 -103 104 0
105 -95 0
105 35 0
95 -35 -105 0
-106 -105 0
-106 73 0
105 -73 106 0
107 -6 0
107 -23 0
6 23 -107 0
-108 -1 0
-108 9 0
1 -9 108 0
109 -48 0
109 -108 0
48 108 -109 0
107 -109 -110 0
-107 109 -110 0
107 109 110 0
-107 -109 110 0
-111 -106 0
-111 110 0
106 -110 111 0
-112 -26 0
-112 57 0
26 -57 112 0
-113 -111 0
-113 112 0
111 -112 113 0
-114 80 0
-114 13 0
-80 -13 114 0
115 -10 0
115 9 0
10 -9 -115 0
-114 115 -116 0
114 -115 -116 0
-114 -115 116 0
114 115 116 0
-117 113 0
-117 -116 0
-113 116 117 0
104 -117 -118 0
-104 117 -118 0
104 117 118 0
-104 -117 118 0
-79 118 -119 0
79 -118 -119 0
-79 -118 119 0
79 118 119 0
-72 7 0
-56 119 117 -71 -84 -76 0
-19 -95 82 -73 0
7 47 -26 0
10 -22 35 -3 -32 -65 0
-114 -22 15 -41 79 0
63 113 22 0
-5 -55 0
-11 -113 114 -60 40 -17 0
8 114 40 -79 -30 0
-17 88 0
89 -58 -17 81 0
-83 -3 -81 90 0
-22 53 -114 -89 0
112 -19 0
-111 -67 -46 75 21 -87 0
108 119 -8 0
-49 91 0
-89 21 -31 12 64 100 0
100 -35 0
54 11 0
66 94 -108 60 0
-104 106 41 21 -45 118 0
-28 9 74 -3 -118 -14 0
-96 78 -92 0
-35 8 119 52 0
-111 2 -8 115 117 47 0
57 -82 -26 16 -41 0
110 55 114 13 -47 -80 0
29 65 0
111 26 108 -50 -106 0
-66 -77 -51 60 58 0
-92 -57 -52 0
25 -72 -70 56 83 -103 0
2 59 -56 -10 -67 0
84 -67 3 -64 100 0
-119 114 -51 70 -50 0
-68 115 0
105 81 74 1 -69 62 0
81 66 -97 0
-108 -101 32 70 0
-89 39 0
-101 21 111 -16 -22 88 0
101 -57 0
39 74 -11 5 0
-85 -65 0
-11 33 -32 34 -104 -46 0
75 82 61 -55 0
109 68 28 0
-116 -107 0
62 -96 -23 47 73 0
-113 27 -63 -18 12 0
18 -115 102 -57 -49 0
119 0
